p cnf 200 1110
-101 33 0
-101 53 0
-101 -54 0
-101 60 0
-101 -42 0
-101 85 0
-101 -57 0
-101 37 0
-101 -20 0
-101 -40 0
101 -33 -53 54 -60 42 -85 57 -37 20 40 0
-102 -4 0
-102 -96 0
-102 -3 0
-102 -13 0
-102 -39 0
-102 33 0
-102 -16 0
-102 11 0
-102 -100 0
-102 82 0
102 4 96 3 13 39 -33 16 -11 100 -82 0
-103 -82 0
-103 88 0
-103 70 0
-103 40 0
-103 25 0
-103 -21 0
-103 76 0
-103 13 0
-103 11 0
-103 99 0
103 82 -88 -70 -40 -25 21 -76 -13 -11 -99 0
-104 -61 0
-104 45 0
-104 79 0
-104 33 0
-104 -63 0
-104 -70 0
-104 59 0
-104 8 0
-104 -2 0
-104 26 0
104 61 -45 -79 -33 63 70 -59 -8 2 -26 0
-105 39 0
-105 25 0
-105 -8 0
-105 -58 0
-105 -18 0
-105 -67 0
-105 -52 0
-105 26 0
-105 38 0
-105 3 0
105 -39 -25 8 58 18 67 52 -26 -38 -3 0
-106 49 0
-106 42 0
-106 -64 0
-106 90 0
-106 -41 0
-106 76 0
-106 -59 0
-106 7 0
-106 -96 0
-106 100 0
106 -49 -42 64 -90 41 -76 59 -7 96 -100 0
-107 -96 0
-107 -38 0
-107 -25 0
-107 29 0
-107 -84 0
-107 73 0
-107 -21 0
-107 -99 0
-107 -90 0
-107 76 0
107 96 38 25 -29 84 -73 21 99 90 -76 0
-108 60 0
-108 93 0
-108 -80 0
-108 -94 0
-108 -68 0
-108 -22 0
-108 4 0
-108 92 0
-108 38 0
-108 -30 0
108 -60 -93 80 94 68 22 -4 -92 -38 30 0
-109 2 0
-109 51 0
-109 22 0
-109 -43 0
-109 25 0
-109 -87 0
-109 -18 0
-109 -78 0
-109 -23 0
-109 -28 0
109 -2 -51 -22 43 -25 87 18 78 23 28 0
-110 61 0
-110 -68 0
-110 -66 0
-110 73 0
-110 65 0
-110 79 0
-110 7 0
-110 -25 0
-110 19 0
-110 77 0
110 -61 68 66 -73 -65 -79 -7 25 -19 -77 0
101 102 103 104 105 106 107 108 109 110 0
-111 -28 0
-111 43 0
-111 -90 0
-111 -66 0
-111 99 0
-111 -83 0
-111 63 0
-111 73 0
-111 48 0
-111 -45 0
111 28 -43 90 66 -99 83 -63 -73 -48 45 0
-112 -74 0
-112 -99 0
-112 55 0
-112 -15 0
-112 98 0
-112 -60 0
-112 88 0
-112 -39 0
-112 -5 0
-112 -27 0
112 74 99 -55 15 -98 60 -88 39 5 27 0
-113 -81 0
-113 60 0
-113 -97 0
-113 -94 0
-113 -37 0
-113 -24 0
-113 16 0
-113 -6 0
-113 73 0
-113 -69 0
113 81 -60 97 94 37 24 -16 6 -73 69 0
-114 80 0
-114 18 0
-114 -27 0
-114 -6 0
-114 -71 0
-114 -49 0
-114 28 0
-114 -41 0
-114 4 0
-114 46 0
114 -80 -18 27 6 71 49 -28 41 -4 -46 0
-115 -51 0
-115 4 0
-115 -89 0
-115 97 0
-115 36 0
-115 54 0
-115 -70 0
-115 -5 0
-115 -8 0
-115 73 0
115 51 -4 89 -97 -36 -54 70 5 8 -73 0
-116 -61 0
-116 21 0
-116 50 0
-116 -66 0
-116 90 0
-116 -28 0
-116 33 0
-116 25 0
-116 -97 0
-116 -7 0
116 61 -21 -50 66 -90 28 -33 -25 97 7 0
-117 -62 0
-117 80 0
-117 -69 0
-117 64 0
-117 -52 0
-117 74 0
-117 8 0
-117 -10 0
-117 -35 0
-117 -79 0
117 62 -80 69 -64 52 -74 -8 10 35 79 0
-118 -6 0
-118 -29 0
-118 -91 0
-118 -87 0
-118 13 0
-118 -92 0
-118 81 0
-118 68 0
-118 -63 0
-118 99 0
118 6 29 91 87 -13 92 -81 -68 63 -99 0
-119 -78 0
-119 -41 0
-119 89 0
-119 -73 0
-119 45 0
-119 -28 0
-119 55 0
-119 60 0
-119 11 0
-119 -98 0
119 78 41 -89 73 -45 28 -55 -60 -11 98 0
-120 -71 0
-120 -81 0
-120 33 0
-120 27 0
-120 -42 0
-120 43 0
-120 72 0
-120 100 0
-120 54 0
-120 -93 0
120 71 81 -33 -27 42 -43 -72 -100 -54 93 0
111 112 113 114 115 116 117 118 119 120 0
-121 -43 0
-121 89 0
-121 36 0
-121 -93 0
-121 -30 0
-121 -79 0
-121 -4 0
-121 25 0
-121 -15 0
-121 52 0
121 43 -89 -36 93 30 79 4 -25 15 -52 0
-122 9 0
-122 24 0
-122 2 0
-122 -65 0
-122 -48 0
-122 -87 0
-122 6 0
-122 94 0
-122 -53 0
-122 -39 0
122 -9 -24 -2 65 48 87 -6 -94 53 39 0
-123 76 0
-123 -96 0
-123 -6 0
-123 -43 0
-123 90 0
-123 -18 0
-123 47 0
-123 38 0
-123 66 0
-123 23 0
123 -76 96 6 43 -90 18 -47 -38 -66 -23 0
-124 70 0
-124 -24 0
-124 -90 0
-124 -36 0
-124 97 0
-124 -48 0
-124 -51 0
-124 11 0
-124 -16 0
-124 49 0
124 -70 24 90 36 -97 48 51 -11 16 -49 0
-125 -60 0
-125 12 0
-125 -35 0
-125 -66 0
-125 -74 0
-125 -76 0
-125 37 0
-125 -83 0
-125 -27 0
-125 -43 0
125 60 -12 35 66 74 76 -37 83 27 43 0
-126 -33 0
-126 -72 0
-126 -80 0
-126 68 0
-126 -3 0
-126 -23 0
-126 4 0
-126 17 0
-126 63 0
-126 28 0
126 33 72 80 -68 3 23 -4 -17 -63 -28 0
-127 -73 0
-127 -66 0
-127 -31 0
-127 61 0
-127 56 0
-127 2 0
-127 63 0
-127 -28 0
-127 95 0
-127 75 0
127 73 66 31 -61 -56 -2 -63 28 -95 -75 0
-128 5 0
-128 94 0
-128 15 0
-128 -17 0
-128 32 0
-128 7 0
-128 -96 0
-128 23 0
-128 99 0
-128 -74 0
128 -5 -94 -15 17 -32 -7 96 -23 -99 74 0
-129 -46 0
-129 -91 0
-129 -57 0
-129 67 0
-129 19 0
-129 -52 0
-129 80 0
-129 77 0
-129 -93 0
-129 -83 0
129 46 91 57 -67 -19 52 -80 -77 93 83 0
-130 23 0
-130 11 0
-130 -82 0
-130 25 0
-130 -81 0
-130 45 0
-130 -24 0
-130 80 0
-130 94 0
-130 -78 0
130 -23 -11 82 -25 81 -45 24 -80 -94 78 0
121 122 123 124 125 126 127 128 129 130 0
-131 -48 0
-131 61 0
-131 15 0
-131 79 0
-131 -58 0
-131 -3 0
-131 -94 0
-131 51 0
-131 34 0
-131 -4 0
131 48 -61 -15 -79 58 3 94 -51 -34 4 0
-132 -67 0
-132 72 0
-132 -53 0
-132 -100 0
-132 89 0
-132 -41 0
-132 -81 0
-132 37 0
-132 10 0
-132 68 0
132 67 -72 53 100 -89 41 81 -37 -10 -68 0
-133 1 0
-133 20 0
-133 -2 0
-133 -47 0
-133 -77 0
-133 80 0
-133 -18 0
-133 54 0
-133 96 0
-133 45 0
133 -1 -20 2 47 77 -80 18 -54 -96 -45 0
-134 15 0
-134 -38 0
-134 -92 0
-134 42 0
-134 37 0
-134 -83 0
-134 90 0
-134 -4 0
-134 -18 0
-134 -27 0
134 -15 38 92 -42 -37 83 -90 4 18 27 0
-135 -72 0
-135 -40 0
-135 -43 0
-135 -14 0
-135 -80 0
-135 86 0
-135 75 0
-135 83 0
-135 28 0
-135 -78 0
135 72 40 43 14 80 -86 -75 -83 -28 78 0
-136 93 0
-136 -25 0
-136 -18 0
-136 43 0
-136 -20 0
-136 -49 0
-136 74 0
-136 60 0
-136 -22 0
-136 28 0
136 -93 25 18 -43 20 49 -74 -60 22 -28 0
-137 97 0
-137 60 0
-137 -15 0
-137 -51 0
-137 46 0
-137 -91 0
-137 -33 0
-137 56 0
-137 12 0
-137 85 0
137 -97 -60 15 51 -46 91 33 -56 -12 -85 0
-138 -15 0
-138 44 0
-138 -33 0
-138 -20 0
-138 19 0
-138 -85 0
-138 -70 0
-138 91 0
-138 66 0
-138 -47 0
138 15 -44 33 20 -19 85 70 -91 -66 47 0
-139 25 0
-139 34 0
-139 -33 0
-139 80 0
-139 21 0
-139 -10 0
-139 -83 0
-139 17 0
-139 19 0
-139 -4 0
139 -25 -34 33 -80 -21 10 83 -17 -19 4 0
-140 -99 0
-140 -72 0
-140 32 0
-140 19 0
-140 68 0
-140 -18 0
-140 83 0
-140 56 0
-140 5 0
-140 -52 0
140 99 72 -32 -19 -68 18 -83 -56 -5 52 0
131 132 133 134 135 136 137 138 139 140 0
-141 -95 0
-141 51 0
-141 36 0
-141 -54 0
-141 -69 0
-141 -94 0
-141 -88 0
-141 18 0
-141 -22 0
-141 81 0
141 95 -51 -36 54 69 94 88 -18 22 -81 0
-142 -44 0
-142 -59 0
-142 27 0
-142 -85 0
-142 -39 0
-142 -48 0
-142 83 0
-142 -66 0
-142 99 0
-142 21 0
142 44 59 -27 85 39 48 -83 66 -99 -21 0
-143 54 0
-143 100 0
-143 -64 0
-143 -65 0
-143 -92 0
-143 4 0
-143 72 0
-143 30 0
-143 -26 0
-143 39 0
143 -54 -100 64 65 92 -4 -72 -30 26 -39 0
-144 -49 0
-144 41 0
-144 93 0
-144 -27 0
-144 -36 0
-144 -30 0
-144 75 0
-144 -95 0
-144 57 0
-144 9 0
144 49 -41 -93 27 36 30 -75 95 -57 -9 0
-145 -63 0
-145 97 0
-145 -18 0
-145 -13 0
-145 2 0
-145 -3 0
-145 71 0
-145 95 0
-145 -70 0
-145 72 0
145 63 -97 18 13 -2 3 -71 -95 70 -72 0
-146 53 0
-146 95 0
-146 -56 0
-146 37 0
-146 -33 0
-146 -25 0
-146 -51 0
-146 -58 0
-146 -31 0
-146 -83 0
146 -53 -95 56 -37 33 25 51 58 31 83 0
-147 -56 0
-147 13 0
-147 -58 0
-147 -37 0
-147 78 0
-147 43 0
-147 32 0
-147 -51 0
-147 -77 0
-147 -88 0
147 56 -13 58 37 -78 -43 -32 51 77 88 0
-148 -87 0
-148 10 0
-148 -92 0
-148 -89 0
-148 -52 0
-148 -1 0
-148 68 0
-148 -20 0
-148 48 0
-148 27 0
148 87 -10 92 89 52 1 -68 20 -48 -27 0
-149 88 0
-149 66 0
-149 67 0
-149 15 0
-149 61 0
-149 54 0
-149 35 0
-149 -42 0
-149 -45 0
-149 32 0
149 -88 -66 -67 -15 -61 -54 -35 42 45 -32 0
-150 -84 0
-150 77 0
-150 -45 0
-150 34 0
-150 19 0
-150 30 0
-150 13 0
-150 87 0
-150 12 0
-150 -37 0
150 84 -77 45 -34 -19 -30 -13 -87 -12 37 0
141 142 143 144 145 146 147 148 149 150 0
-151 72 0
-151 21 0
-151 -78 0
-151 -37 0
-151 -93 0
-151 79 0
-151 68 0
-151 -19 0
-151 -32 0
-151 14 0
151 -72 -21 78 37 93 -79 -68 19 32 -14 0
-152 36 0
-152 32 0
-152 38 0
-152 99 0
-152 82 0
-152 -94 0
-152 -30 0
-152 -2 0
-152 66 0
-152 9 0
152 -36 -32 -38 -99 -82 94 30 2 -66 -9 0
-153 -9 0
-153 -32 0
-153 -92 0
-153 -11 0
-153 54 0
-153 73 0
-153 58 0
-153 42 0
-153 -33 0
-153 -90 0
153 9 32 92 11 -54 -73 -58 -42 33 90 0
-154 92 0
-154 50 0
-154 -66 0
-154 -61 0
-154 -2 0
-154 -41 0
-154 65 0
-154 82 0
-154 35 0
-154 13 0
154 -92 -50 66 61 2 41 -65 -82 -35 -13 0
-155 20 0
-155 -94 0
-155 14 0
-155 51 0
-155 34 0
-155 23 0
-155 73 0
-155 87 0
-155 80 0
-155 8 0
155 -20 94 -14 -51 -34 -23 -73 -87 -80 -8 0
-156 -44 0
-156 48 0
-156 92 0
-156 -11 0
-156 88 0
-156 70 0
-156 68 0
-156 -87 0
-156 18 0
-156 -63 0
156 44 -48 -92 11 -88 -70 -68 87 -18 63 0
-157 -29 0
-157 -13 0
-157 -47 0
-157 -97 0
-157 74 0
-157 37 0
-157 -51 0
-157 -87 0
-157 -55 0
-157 40 0
157 29 13 47 97 -74 -37 51 87 55 -40 0
-158 79 0
-158 49 0
-158 -32 0
-158 -25 0
-158 29 0
-158 -99 0
-158 -61 0
-158 78 0
-158 20 0
-158 -30 0
158 -79 -49 32 25 -29 99 61 -78 -20 30 0
-159 -2 0
-159 30 0
-159 10 0
-159 52 0
-159 38 0
-159 21 0
-159 61 0
-159 63 0
-159 -89 0
-159 57 0
159 2 -30 -10 -52 -38 -21 -61 -63 89 -57 0
-160 -11 0
-160 50 0
-160 19 0
-160 -57 0
-160 82 0
-160 81 0
-160 24 0
-160 -37 0
-160 20 0
-160 87 0
160 11 -50 -19 57 -82 -81 -24 37 -20 -87 0
151 152 153 154 155 156 157 158 159 160 0
-161 -35 0
-161 -19 0
-161 -17 0
-161 100 0
-161 -1 0
-161 -46 0
-161 8 0
-161 16 0
-161 12 0
-161 41 0
161 35 19 17 -100 1 46 -8 -16 -12 -41 0
-162 53 0
-162 -85 0
-162 -20 0
-162 91 0
-162 -48 0
-162 -14 0
-162 -1 0
-162 -62 0
-162 78 0
-162 59 0
162 -53 85 20 -91 48 14 1 62 -78 -59 0
-163 2 0
-163 -25 0
-163 -47 0
-163 74 0
-163 -88 0
-163 -33 0
-163 -78 0
-163 -67 0
-163 -38 0
-163 29 0
163 -2 25 47 -74 88 33 78 67 38 -29 0
-164 -9 0
-164 -58 0
-164 -61 0
-164 -67 0
-164 27 0
-164 -77 0
-164 18 0
-164 79 0
-164 -92 0
-164 -69 0
164 9 58 61 67 -27 77 -18 -79 92 69 0
-165 -64 0
-165 -72 0
-165 -45 0
-165 -60 0
-165 53 0
-165 8 0
-165 -86 0
-165 13 0
-165 -14 0
-165 -30 0
165 64 72 45 60 -53 -8 86 -13 14 30 0
-166 -13 0
-166 57 0
-166 -1 0
-166 99 0
-166 -98 0
-166 -78 0
-166 -44 0
-166 -60 0
-166 2 0
-166 15 0
166 13 -57 1 -99 98 78 44 60 -2 -15 0
-167 45 0
-167 28 0
-167 38 0
-167 -24 0
-167 -61 0
-167 91 0
-167 -47 0
-167 84 0
-167 -3 0
-167 -43 0
167 -45 -28 -38 24 61 -91 47 -84 3 43 0
-168 97 0
-168 63 0
-168 31 0
-168 -95 0
-168 26 0
-168 -88 0
-168 45 0
-168 16 0
-168 53 0
-168 -38 0
168 -97 -63 -31 95 -26 88 -45 -16 -53 38 0
-169 -17 0
-169 34 0
-169 93 0
-169 -72 0
-169 87 0
-169 -29 0
-169 -85 0
-169 -67 0
-169 82 0
-169 -19 0
169 17 -34 -93 72 -87 29 85 67 -82 19 0
-170 -31 0
-170 20 0
-170 -94 0
-170 -30 0
-170 35 0
-170 -76 0
-170 56 0
-170 71 0
-170 -79 0
-170 -81 0
170 31 -20 94 30 -35 76 -56 -71 79 81 0
161 162 163 164 165 166 167 168 169 170 0
-171 68 0
-171 87 0
-171 -71 0
-171 -45 0
-171 -23 0
-171 61 0
-171 -5 0
-171 -10 0
-171 83 0
-171 -54 0
171 -68 -87 71 45 23 -61 5 10 -83 54 0
-172 49 0
-172 -74 0
-172 -9 0
-172 -21 0
-172 -78 0
-172 -15 0
-172 28 0
-172 100 0
-172 47 0
-172 71 0
172 -49 74 9 21 78 15 -28 -100 -47 -71 0
-173 68 0
-173 98 0
-173 -53 0
-173 -55 0
-173 -17 0
-173 72 0
-173 -81 0
-173 79 0
-173 -8 0
-173 -22 0
173 -68 -98 53 55 17 -72 81 -79 8 22 0
-174 -84 0
-174 99 0
-174 70 0
-174 -64 0
-174 27 0
-174 97 0
-174 78 0
-174 59 0
-174 -55 0
-174 -42 0
174 84 -99 -70 64 -27 -97 -78 -59 55 42 0
-175 -49 0
-175 -62 0
-175 -100 0
-175 -72 0
-175 84 0
-175 -28 0
-175 -71 0
-175 46 0
-175 -79 0
-175 50 0
175 49 62 100 72 -84 28 71 -46 79 -50 0
-176 61 0
-176 5 0
-176 -31 0
-176 47 0
-176 95 0
-176 -63 0
-176 89 0
-176 22 0
-176 -13 0
-176 -4 0
176 -61 -5 31 -47 -95 63 -89 -22 13 4 0
-177 27 0
-177 8 0
-177 62 0
-177 -7 0
-177 67 0
-177 60 0
-177 92 0
-177 31 0
-177 55 0
-177 96 0
177 -27 -8 -62 7 -67 -60 -92 -31 -55 -96 0
-178 -45 0
-178 95 0
-178 -21 0
-178 -99 0
-178 38 0
-178 92 0
-178 91 0
-178 66 0
-178 56 0
-178 -51 0
178 45 -95 21 99 -38 -92 -91 -66 -56 51 0
-179 -70 0
-179 -49 0
-179 -88 0
-179 -90 0
-179 -80 0
-179 52 0
-179 -54 0
-179 86 0
-179 -95 0
-179 -56 0
179 70 49 88 90 80 -52 54 -86 95 56 0
-180 -10 0
-180 -19 0
-180 28 0
-180 -66 0
-180 -51 0
-180 20 0
-180 -95 0
-180 68 0
-180 -25 0
-180 -34 0
180 10 19 -28 66 51 -20 95 -68 25 34 0
171 172 173 174 175 176 177 178 179 180 0
-181 -42 0
-181 100 0
-181 -92 0
-181 -73 0
-181 13 0
-181 79 0
-181 -63 0
-181 62 0
-181 -83 0
-181 -80 0
181 42 -100 92 73 -13 -79 63 -62 83 80 0
-182 18 0
-182 3 0
-182 15 0
-182 17 0
-182 -53 0
-182 46 0
-182 -62 0
-182 78 0
-182 -10 0
-182 -49 0
182 -18 -3 -15 -17 53 -46 62 -78 10 49 0
-183 47 0
-183 -64 0
-183 -1 0
-183 13 0
-183 -54 0
-183 -55 0
-183 75 0
-183 -95 0
-183 71 0
-183 -11 0
183 -47 64 1 -13 54 55 -75 95 -71 11 0
-184 86 0
-184 37 0
-184 25 0
-184 -27 0
-184 77 0
-184 -31 0
-184 -100 0
-184 -82 0
-184 -81 0
-184 -92 0
184 -86 -37 -25 27 -77 31 100 82 81 92 0
-185 9 0
-185 99 0
-185 96 0
-185 63 0
-185 51 0
-185 46 0
-185 -74 0
-185 52 0
-185 54 0
-185 -23 0
185 -9 -99 -96 -63 -51 -46 74 -52 -54 23 0
-186 24 0
-186 10 0
-186 -94 0
-186 20 0
-186 -64 0
-186 -100 0
-186 -93 0
-186 -12 0
-186 -32 0
-186 3 0
186 -24 -10 94 -20 64 100 93 12 32 -3 0
-187 26 0
-187 7 0
-187 51 0
-187 39 0
-187 -98 0
-187 -10 0
-187 89 0
-187 -43 0
-187 -2 0
-187 6 0
187 -26 -7 -51 -39 98 10 -89 43 2 -6 0
-188 -56 0
-188 59 0
-188 62 0
-188 -77 0
-188 -95 0
-188 89 0
-188 -54 0
-188 -82 0
-188 -76 0
-188 35 0
188 56 -59 -62 77 95 -89 54 82 76 -35 0
-189 89 0
-189 44 0
-189 12 0
-189 81 0
-189 -3 0
-189 91 0
-189 79 0
-189 77 0
-189 -84 0
-189 -16 0
189 -89 -44 -12 -81 3 -91 -79 -77 84 16 0
-190 41 0
-190 48 0
-190 44 0
-190 3 0
-190 77 0
-190 27 0
-190 46 0
-190 89 0
-190 31 0
-190 56 0
190 -41 -48 -44 -3 -77 -27 -46 -89 -31 -56 0
181 182 183 184 185 186 187 188 189 190 0
-191 -87 0
-191 66 0
-191 26 0
-191 63 0
-191 -36 0
-191 57 0
-191 -15 0
-191 31 0
-191 41 0
-191 -19 0
191 87 -66 -26 -63 36 -57 15 -31 -41 19 0
-192 -18 0
-192 10 0
-192 -30 0
-192 -59 0
-192 -13 0
-192 92 0
-192 67 0
-192 66 0
-192 -71 0
-192 97 0
192 18 -10 30 59 13 -92 -67 -66 71 -97 0
-193 15 0
-193 -57 0
-193 -19 0
-193 -99 0
-193 -11 0
-193 31 0
-193 -71 0
-193 -27 0
-193 -18 0
-193 9 0
193 -15 57 19 99 11 -31 71 27 18 -9 0
-194 -71 0
-194 51 0
-194 -89 0
-194 76 0
-194 72 0
-194 -78 0
-194 -21 0
-194 87 0
-194 31 0
-194 -1 0
194 71 -51 89 -76 -72 78 21 -87 -31 1 0
-195 -17 0
-195 20 0
-195 -46 0
-195 62 0
-195 -87 0
-195 -57 0
-195 55 0
-195 93 0
-195 -24 0
-195 -48 0
195 17 -20 46 -62 87 57 -55 -93 24 48 0
-196 70 0
-196 -48 0
-196 38 0
-196 45 0
-196 25 0
-196 -85 0
-196 67 0
-196 44 0
-196 95 0
-196 -96 0
196 -70 48 -38 -45 -25 85 -67 -44 -95 96 0
-197 -65 0
-197 66 0
-197 -55 0
-197 -75 0
-197 -29 0
-197 -62 0
-197 43 0
-197 87 0
-197 6 0
-197 -37 0
197 65 -66 55 75 29 62 -43 -87 -6 37 0
-198 -68 0
-198 -73 0
-198 -40 0
-198 -89 0
-198 -26 0
-198 -4 0
-198 -31 0
-198 91 0
-198 -54 0
-198 24 0
198 68 73 40 89 26 4 31 -91 54 -24 0
-199 -39 0
-199 30 0
-199 89 0
-199 94 0
-199 -100 0
-199 81 0
-199 84 0
-199 96 0
-199 49 0
-199 -57 0
199 39 -30 -89 -94 100 -81 -84 -96 -49 57 0
-200 -48 0
-200 19 0
-200 86 0
-200 53 0
-200 68 0
-200 -16 0
-200 35 0
-200 84 0
-200 -31 0
-200 49 0
200 48 -19 -86 -53 -68 16 -35 -84 31 -49 0
191 192 193 194 195 196 197 198 199 200 0
